89 146 195 159 172 9 129 4 78 160 42 140 142 23 32 182 116 107 91 194 93 8 199 27 143 183 173 60 57 63 20 188 189 61 126 81 82 148 150 77 95 66 45 152 52 67 88 87 72 34 73 161 141 54 110 155 0 108 26 70 169 98 191 50 147 187 106 41 97 84 113 44 92 18 111 2 6 175 167 99 121 151 127 28 37 75 16 186 12 176 158 13 136 46 139 65 153 102 137 166 36 35 7 101 31 68 24 164 10 170 197 118 162 117 198 185 132 14 156 119 47 124 104 22 71 59 181 56 53 90 112 96 51 128 58 21 48 184 178 130 123 55 179 1 196 122 39 177 83 79 25 109 135 64 115 125 171 190 180 74 154 40 49 76 85 114 43 131 62 3 15 103 149 193 163 105 29 69 144 94 120 165 11 134 168 174 100 157 5 145 80 38 86 30 19 138 17 133 33 192 

